max

obj:

+55.42 x0
+40.94 x1
+39.46 x2
+38.73 x3
+40.04 x4
+45.75 x5
+49.96 x6
+51.02 x7
+44.15 x8
+43.89 x9
+42.0 x10
+46.63 x11
+72.35 x12
+80.08 x13
+68.1 x14
-0.02 x15
-0.8 x16
-0.58 x17
-0.59 x18
-0.89 x19
+54.58 x20
+21.87 x21
+18.4 x22
+39.39 x23
+37.09 x24
+78.62 x25
+80.52 x26
+58.64 x27
+55.34 x28
+48.89 x29
+4.24 x30
-9.91 x31
-6.48 x32
+3.23 x33
+66.91 x34
+29.58 x35
+1.3 x36
+11.91 x37
+39.97 x38
+39.13 x39
+39.71 x40
+41.04 x41
+42.53 x42
+50.5 x43
+0.41 x44
-0.04 x45
-0.03 x46
+1.93 x47
-2.71 x48
+53.93 x49
+38.43 x50
+29.56 x51
+67.26 x52
+46.63 x53
+33.71 x54
+21.95 x55
+15.98 x56
+4.34 x57
+11.08 x58
+53.73 x59
+83.25 x60
+78.6 x61
-0.05 x62
+10.8 x63
+13.47 x64
+38.88 x65
+61.68 x66
+82.93 x67
+106.89 x68
+34.1 x69
+85.48 x70
+0.03 x71
+0.02 x72
+0.04 x73
+21.19 x74
+17.36 x75
+13.27 x76
+26.2 x77
-2.43 x78
-15.04 x79
-29.8 x80
+51.57 x81
+80.86 x82
+0.01 x83
+67.64 x84
+60.38 x85
+62.13 x86
+77.69 x87
+53.44 x88
+57.45 x89
+73.76 x90
+32.46 x91
+10.99 x92
+4.21 x93
+13.03 x94
-0.11 x95
-0.01 x96
+11.81 x97
+10.06 x98
+6.98 x99
+13.8 x100
+47.86 x101
+79.2 x102
+87.36 x103
+76.4 x104
+58.61 x105
+63.53 x106
+26.04 x107
-0.38 x109
+9.4 x110
+6.85 x111
+15.01 x112
+64.14 x113
+49.39 x114
+28.37 x115
+2.33 x116
+109.97 x117
+84.92 x118
+60.13 x119
+18.34 x120
+0.47 x121
-0.59 x122
+65.06 x123
+0.11 x124
+22.19 x125
+19.92 x126
+20.07 x127
+13.61 x128
+12.48 x129
+14.53 x130
+102.3 x131
+96.61 x132
+1.02 x133
+92.32 x134
+32.96 x136
+108.91 x137
+55.32 x138
+5.49 x139
+50.41 x140
+4.97 x141
+7.13 x142
+4.03 x143
+10.91 x144
+62.05 x145
+24.69 x146
+8.24 x147
+0.06 x148
+0.07 x149
+23.75 x150
+37.83 x151
+42.97 x152
+9.84 x153
+63.04 x154
+47.09 x155
+33.98 x156
+90.96 x157
+81.46 x158
+28.0 x159
+24.0 x160
+24.0 x161
+22.36 x162
+25.0 x163
+28.0 x164
+38.0 x165
+34.0 x166
+31.0 x167
+25.0 x168
+27.0 x169
+33.52 x170
+28.0 x171
+25.48 x172
+68.1 x173
-1.0 x174
-1.0 x175
-1.0 x176
-1.0 x177
-1.0 x178
+54.58 x179
+12.0 x180
+10.0 x181
+17.0 x182
+20.5 x183
+26.68 x184
+46.0 x185
+33.0 x186
+33.0 x187
+23.0 x188
-4.0 x189
+4.42 x190
-6.48 x191
+3.23 x192
+66.91 x193
+13.0 x194
-4.5 x195
+10.0 x196
+34.0 x197
+39.13 x198
+33.5 x199
+28.0 x200
+25.0 x201
+25.0 x202
-6.6 x203
-10.0 x204
-9.0 x205
-9.0 x206
-8.0 x207
+53.93 x208
+34.0 x209
+20.0 x210
+35.5 x211
+25.0 x212
+20.0 x213
+20.0 x214
+15.0 x215
+4.34 x216
+10.0 x217
+17.0 x218
+22.0 x219
+22.0 x220
-0.05 x221
+5.36 x222
+6.37 x223
+19.0 x224
+19.0 x225
+16.0 x226
+16.0 x227
+2.0 x228
+14.0 x229
-1.0 x230
-0.48 x231
+0.04 x232
+26.18 x233
+2.0 x234
+2.0 x235
+13.0 x236
-16.0 x237
-50.0 x238
-45.0 x239
+35.0 x240
+80.86 x241
+0.01 x242
+67.64 x243
+26.54 x244
+26.54 x245
+388.66 x246
+53.44 x247
+35.0 x248
+12.5 x249
+4.0 x250
-2.5 x251
-2.5 x252
-4.0 x253
-13.4 x254
-12.06 x255
+0.5 x256
-1.5 x257
+5.5 x258
+9.47 x259
+10.0 x260
+49.5 x261
+49.5 x262
+36.5 x263
+49.0 x264
+28.0 x265
-5.0 x266
-1.0 x268
-1.5 x269
-3.0 x270
-3.0 x271
-0.5 x272
-0.5 x273
+1.0 x274
-6.0 x275
+48.06 x276
+106.61 x277
+19.0 x278
-3.89 x280
-7.0 x281
+65.06 x282
+0.11 x283
+10.0 x284
+10.0 x285
+4.0 x286
-1.0 x287
-1.5 x288
-0.5 x289
+20.0 x290
+22.5 x291
+92.32 x293
+2.5 x294
+2.68 x295
+108.91 x296
+55.32 x297
+58.0 x298
+12.0 x299
+3.0 x300
-2.91 x301
-5.0 x302
-1.0 x303
+62.05 x304
+12.0 x305
+5.0 x306
+0.06 x307
-1.0 x308
+54.0 x309
+37.83 x310
+42.97 x311
-3.0 x312
+84.8 x313
+40.0 x314
+33.98 x315
+90.96 x316
+81.46 x317


s.t.

c0:
+1.0 x0
-1.0 x318
= 2.489000082015991
c1:
+1.0 x1
-1.0 x318
= 2.7320001125335693
c2:
-1.0 x318
+1.0 x2
= 2.8489999771118164
c3:
+1.0 x3
-1.0 x318
= 2.9119999408721924
c4:
+1.0 x4
-1.0 x318
= 2.9179999828338623
c5:
-1.0 x318
+1.0 x5
= 2.8420000076293945
c6:
-1.0 x318
+1.0 x6
= 2.6689999103546143
c7:
+1.0 x7
-1.0 x318
= 1.5499999523162842
c8:
-1.0 x318
+1.0 x8
= 1.6660000085830688
c9:
-1.0 x318
+1.0 x9
= 1.6319999694824219
c10:
-1.0 x318
+1.0 x10
= 1.49399995803833
c11:
-1.0 x318
+1.0 x11
= 1.406000018119812
c12:
+1.0 x12
-1.0 x318
= 1.3270000219345093
c13:
+1.0 x13
-1.0 x318
= 1.1779999732971191
c14:
-1.0 x318
+1.0 x14
= 1.8700000047683716
c15:
-1.0 x318
+1.0 x15
= 2.319000005722046
c16:
+1.0 x16
-1.0 x318
= 2.365999937057495
c17:
+1.0 x17
-1.0 x318
= 2.444999933242798
c18:
-1.0 x318
+1.0 x18
= 2.493000030517578
c19:
+1.0 x19
-1.0 x318
= 2.4149999618530273
c20:
-1.0 x318
+1.0 x20
= 1.3480000495910645
c21:
-1.0 x318
+1.0 x21
= 3.494999885559082
c22:
-1.0 x318
+1.0 x22
= 3.680000066757202
c23:
-1.0 x318
+1.0 x23
= 3.7980000972747803
c24:
-1.0 x318
+1.0 x24
= 3.8329999446868896
c25:
+1.0 x25
-1.0 x318
= 2.7880001068115234
c26:
-1.0 x318
+1.0 x26
= 1.25
c27:
+1.0 x27
-1.0 x318
= 1.0989999771118164
c28:
+1.0 x28
-1.0 x318
= 1.0
c29:
+1.0 x29
-1.0 x318
= 1.2549999952316284
c30:
+1.0 x30
-1.0 x318
= 0.9430000185966492
c31:
+1.0 x31
-1.0 x318
= 3.4079999923706055
c32:
-1.0 x318
+1.0 x32
= 3.609999895095825
c33:
-1.0 x318
+1.0 x33
= 3.5929999351501465
c34:
+1.0 x34
-1.0 x318
= 1.125
c35:
+1.0 x35
-1.0 x318
= 1.2009999752044678
c36:
+1.0 x36
-1.0 x318
= 1.2740000486373901
c37:
-1.0 x318
+1.0 x37
= 1.1799999475479126
c38:
-1.0 x318
+1.0 x38
= 2.8559999465942383
c39:
+1.0 x39
-1.0 x318
= 2.5820000171661377
c40:
-1.0 x318
+1.0 x40
= 2.240999937057495
c41:
-1.0 x318
+1.0 x41
= 1.9279999732971191
c42:
-1.0 x318
+1.0 x42
= 1.725000023841858
c43:
-1.0 x318
+1.0 x43
= 1.621000051498413
c44:
+1.0 x44
-1.0 x318
= 4.3460001945495605
c45:
+1.0 x45
-1.0 x318
= 4.591000080108643
c46:
+1.0 x46
-1.0 x318
= 5.013999938964844
c47:
+1.0 x47
-1.0 x318
= 5.033999919891357
c48:
-1.0 x318
+1.0 x48
= 3.309999942779541
c49:
+1.0 x49
-1.0 x318
= 1.2309999465942383
c50:
-1.0 x318
+1.0 x50
= 1.0839999914169312
c51:
-1.0 x318
+1.0 x51
= 0.7360000014305115
c52:
+1.0 x52
-1.0 x318
= 0.15600000321865082
c53:
+1.0 x53
-1.0 x318
= 0.20800000429153442
c54:
+1.0 x54
-1.0 x318
= 0.2709999978542328
c55:
+1.0 x55
-1.0 x318
= 0.3700000047683716
c56:
+1.0 x56
-1.0 x318
= 0.5379999876022339
c57:
-1.0 x318
+1.0 x57
= 0.7599999904632568
c58:
+1.0 x58
-1.0 x318
= 0.972000002861023
c59:
+1.0 x59
-1.0 x318
= 1.2599999904632568
c60:
+1.0 x60
-1.0 x318
= 0.24799999594688416
c61:
+1.0 x61
-1.0 x318
= 0.2639999985694885
c62:
+1.0 x62
-1.0 x318
= 2.2990000247955322
c63:
+1.0 x63
-1.0 x318
= 0.43799999356269836
c64:
-1.0 x318
+1.0 x64
= 0.6850000023841858
c65:
+1.0 x65
-1.0 x318
= 0.9789999723434448
c66:
+1.0 x66
-1.0 x318
= 1.253000020980835
c67:
+1.0 x67
-1.0 x318
= 1.468999981880188
c68:
+1.0 x68
-1.0 x318
= 1.6150000095367432
c69:
+1.0 x69
-1.0 x318
= 1.343000054359436
c70:
+1.0 x70
-1.0 x318
= 1.1679999828338623
c71:
-1.0 x318
+1.0 x71
= 1.690999984741211
c72:
+1.0 x72
-1.0 x318
= 1.8919999599456787
c73:
+1.0 x73
-1.0 x318
= 2.319999933242798
c74:
+1.0 x74
-1.0 x318
= 2.884000062942505
c75:
+1.0 x75
-1.0 x318
= 0.4339999854564667
c76:
+1.0 x76
-1.0 x318
= 0.6079999804496765
c77:
+1.0 x77
-1.0 x318
= 0.7239999771118164
c78:
+1.0 x78
-1.0 x318
= 3.7009999752044678
c79:
+1.0 x79
-1.0 x318
= 4.060999870300293
c80:
-1.0 x318
+1.0 x80
= 4.383999824523926
c81:
+1.0 x81
-1.0 x318
= 2.680000066757202
c82:
+1.0 x82
-1.0 x318
= 2.4730000495910645
c83:
-1.0 x318
+1.0 x83
= 0.05000000074505806
c84:
+1.0 x84
-1.0 x318
= 0.503000020980835
c85:
+1.0 x85
-1.0 x318
= 0.5120000243186951
c86:
+1.0 x86
-1.0 x318
= 0.5899999737739563
c87:
+1.0 x87
-1.0 x318
= 0.4650000035762787
c88:
-1.0 x318
+1.0 x88
= 0.5820000171661377
c89:
-1.0 x318
+1.0 x89
= 1.0980000495910645
c90:
-1.0 x318
+1.0 x90
= 2.1630001068115234
c91:
-1.0 x318
+1.0 x91
= 2.805999994277954
c92:
+1.0 x92
-1.0 x318
= 4.059999942779541
c93:
-1.0 x318
+1.0 x93
= 4.508999824523926
c94:
-1.0 x318
+1.0 x94
= 4.84499979019165
c95:
-1.0 x318
+1.0 x95
= 3.7950000762939453
c96:
-1.0 x318
+1.0 x96
= 4.129000186920166
c97:
-1.0 x318
+1.0 x97
= 3.9619998931884766
c98:
-1.0 x318
+1.0 x98
= 0.05400000140070915
c99:
+1.0 x99
-1.0 x318
= -0.0
c100:
+1.0 x100
-1.0 x318
= -0.0
c101:
+1.0 x101
-1.0 x318
= 3.4519999027252197
c102:
+1.0 x102
-1.0 x318
= 0.2879999876022339
c103:
-1.0 x318
+1.0 x103
= 1.4930000305175781
c104:
+1.0 x104
-1.0 x318
= 1.3609999418258667
c105:
+1.0 x105
-1.0 x318
= 2.6689999103546143
c106:
-1.0 x318
+1.0 x106
= 2.0940001010894775
c107:
+1.0 x107
-1.0 x318
= 1.5160000324249268
c108:
+1.0 x108
-1.0 x318
= 2.822999954223633
c109:
-1.0 x318
+1.0 x109
= 3.250999927520752
c110:
-1.0 x318
+1.0 x110
= 1.8890000581741333
c111:
+1.0 x111
-1.0 x318
= 2.1010000705718994
c112:
+1.0 x112
-1.0 x318
= 2.4809999465942383
c113:
+1.0 x113
-1.0 x318
= 2.749000072479248
c114:
+1.0 x114
-1.0 x318
= 2.743000030517578
c115:
-1.0 x318
+1.0 x115
= 1.3259999752044678
c116:
-1.0 x318
+1.0 x116
= 1.5219999551773071
c117:
+1.0 x117
-1.0 x318
= 0.9760000109672546
c118:
+1.0 x118
-1.0 x318
= 0.9210000038146973
c119:
+1.0 x119
-1.0 x318
= 0.8820000290870667
c120:
-1.0 x318
+1.0 x120
= 0.7580000162124634
c121:
-1.0 x318
+1.0 x121
= 0.656000018119812
c122:
-1.0 x318
+1.0 x122
= 0.5640000104904175
c123:
-1.0 x318
+1.0 x123
= 2.38700008392334
c124:
-1.0 x318
+1.0 x124
= 2.299999952316284
c125:
-1.0 x318
+1.0 x125
= 3.578000068664551
c126:
-1.0 x318
+1.0 x126
= 3.555999994277954
c127:
-1.0 x318
+1.0 x127
= 2.4719998836517334
c128:
+1.0 x128
-1.0 x318
= 2.427999973297119
c129:
-1.0 x318
+1.0 x129
= 2.444000005722046
c130:
+1.0 x130
-1.0 x318
= 2.436000108718872
c131:
+1.0 x131
-1.0 x318
= 2.26200008392334
c132:
+1.0 x132
-1.0 x318
= 2.1480000019073486
c133:
+1.0 x133
-1.0 x318
= 1.1640000343322754
c134:
+1.0 x134
-1.0 x318
= 1.9980000257492065
c135:
+1.0 x135
-1.0 x318
= 2.6019999980926514
c136:
+1.0 x136
-1.0 x318
= 2.003000020980835
c137:
+1.0 x137
-1.0 x318
= 0.20800000429153442
c138:
+1.0 x138
-1.0 x318
= 0.03200000151991844
c139:
-1.0 x318
+1.0 x139
= 0.020999999716877937
c140:
-1.0 x318
+1.0 x140
= 0.1509999930858612
c141:
+1.0 x141
-1.0 x318
= 0.18400000035762787
c142:
-1.0 x318
+1.0 x142
= 0.22300000488758087
c143:
-1.0 x318
+1.0 x143
= 0.2409999966621399
c144:
-1.0 x318
+1.0 x144
= 0.2549999952316284
c145:
-1.0 x318
+1.0 x145
= 0.3140000104904175
c146:
-1.0 x318
+1.0 x146
= 0.2370000034570694
c147:
+1.0 x147
-1.0 x318
= 0.2750000059604645
c148:
-1.0 x318
+1.0 x148
= 0.2809999883174896
c149:
-1.0 x318
+1.0 x149
= 0.22699999809265137
c150:
-1.0 x318
+1.0 x150
= 3.059999942779541
c151:
-1.0 x318
+1.0 x151
= 0.7760000228881836
c152:
+1.0 x152
-1.0 x318
= 3.621000051498413
c153:
-1.0 x318
+1.0 x153
= 5.85099983215332
c154:
-1.0 x318
+1.0 x154
= 0.7289999723434448
c155:
+1.0 x155
-1.0 x318
= 0.6140000224113464
c156:
+1.0 x156
-1.0 x318
= 0.5479999780654907
c157:
+1.0 x157
-1.0 x318
= 0.32499998807907104
c158:
+1.0 x158
-1.0 x318
= 0.33399999141693115
c159:
+1.0 x318
>= -0.0


bounds

+0.0 <=  x0 <= +7.2
+0.0 <=  x1 <= +7.2
+0.0 <=  x2 <= +7.2
+0.0 <=  x3 <= +7.2
+0.0 <=  x4 <= +7.2
+0.0 <=  x5 <= +7.2
+0.0 <=  x6 <= +7.2
+0.0 <=  x7 <= +7.2
+0.0 <=  x8 <= +7.2
+0.0 <=  x9 <= +7.2
+0.0 <=  x10 <= +7.2
+0.0 <=  x11 <= +7.2
+0.0 <=  x12 <= +7.2
+0.0 <=  x13 <= +7.2
+0.0 <=  x14 <= +7.2
+0.0 <=  x15 <= +7.2
+0.0 <=  x16 <= +7.2
+0.0 <=  x17 <= +7.2
+0.0 <=  x18 <= +7.2
+0.0 <=  x19 <= +7.2
+0.0 <=  x20 <= +7.2
+0.0 <=  x21 <= +7.2
+0.0 <=  x22 <= +7.2
+0.0 <=  x23 <= +7.2
+0.0 <=  x24 <= +7.2
+0.0 <=  x25 <= +7.2
+0.0 <=  x26 <= +7.2
+0.0 <=  x27 <= +7.2
+0.0 <=  x28 <= +7.2
+0.0 <=  x29 <= +7.2
+0.0 <=  x30 <= +7.2
+0.0 <=  x31 <= +7.2
+0.0 <=  x32 <= +7.2
+0.0 <=  x33 <= +7.2
+0.0 <=  x34 <= +7.2
+0.0 <=  x35 <= +7.2
+0.0 <=  x36 <= +7.2
+0.0 <=  x37 <= +7.2
+0.0 <=  x38 <= +7.2
+0.0 <=  x39 <= +7.2
+0.0 <=  x40 <= +7.2
+0.0 <=  x41 <= +7.2
+0.0 <=  x42 <= +7.2
+0.0 <=  x43 <= +7.2
+0.0 <=  x44 <= +7.2
+0.0 <=  x45 <= +7.2
+0.0 <=  x46 <= +7.2
+0.0 <=  x47 <= +7.2
+0.0 <=  x48 <= +7.2
+0.0 <=  x49 <= +7.2
+0.0 <=  x50 <= +7.2
+0.0 <=  x51 <= +7.2
+0.0 <=  x52 <= +7.2
+0.0 <=  x53 <= +7.2
+0.0 <=  x54 <= +7.2
+0.0 <=  x55 <= +7.2
+0.0 <=  x56 <= +7.2
+0.0 <=  x57 <= +7.2
+0.0 <=  x58 <= +7.2
+0.0 <=  x59 <= +7.2
+0.0 <=  x60 <= +7.2
+0.0 <=  x61 <= +7.2
+0.0 <=  x62 <= +7.2
+0.0 <=  x63 <= +7.2
+0.0 <=  x64 <= +7.2
+0.0 <=  x65 <= +7.2
+0.0 <=  x66 <= +7.2
+0.0 <=  x67 <= +7.2
+0.0 <=  x68 <= +7.2
+0.0 <=  x69 <= +7.2
+0.0 <=  x70 <= +7.2
+0.0 <=  x71 <= +7.2
+0.0 <=  x72 <= +7.2
+0.0 <=  x73 <= +7.2
+0.0 <=  x74 <= +7.2
+0.0 <=  x75 <= +7.2
+0.0 <=  x76 <= +7.2
+0.0 <=  x77 <= +7.2
+0.0 <=  x78 <= +7.2
+0.0 <=  x79 <= +7.2
+0.0 <=  x80 <= +7.2
+0.0 <=  x81 <= +7.2
+0.0 <=  x82 <= +7.2
+0.0 <=  x83 <= +7.2
+0.0 <=  x84 <= +7.2
+0.0 <=  x85 <= +7.2
+0.0 <=  x86 <= +7.2
+0.0 <=  x87 <= +7.2
+0.0 <=  x88 <= +7.2
+0.0 <=  x89 <= +7.2
+0.0 <=  x90 <= +7.2
+0.0 <=  x91 <= +7.2
+0.0 <=  x92 <= +7.2
+0.0 <=  x93 <= +7.2
+0.0 <=  x94 <= +7.2
+0.0 <=  x95 <= +7.2
+0.0 <=  x96 <= +7.2
+0.0 <=  x97 <= +7.2
+0.0 <=  x98 <= +7.2
+0.0 <=  x99 <= +7.2
+0.0 <=  x100 <= +7.2
+0.0 <=  x101 <= +7.2
+0.0 <=  x102 <= +7.2
+0.0 <=  x103 <= +7.2
+0.0 <=  x104 <= +7.2
+0.0 <=  x105 <= +7.2
+0.0 <=  x106 <= +7.2
+0.0 <=  x107 <= +7.2
+0.0 <=  x108 <= +7.2
+0.0 <=  x109 <= +7.2
+0.0 <=  x110 <= +7.2
+0.0 <=  x111 <= +7.2
+0.0 <=  x112 <= +7.2
+0.0 <=  x113 <= +7.2
+0.0 <=  x114 <= +7.2
+0.0 <=  x115 <= +7.2
+0.0 <=  x116 <= +7.2
+0.0 <=  x117 <= +7.2
+0.0 <=  x118 <= +7.2
+0.0 <=  x119 <= +7.2
+0.0 <=  x120 <= +7.2
+0.0 <=  x121 <= +7.2
+0.0 <=  x122 <= +7.2
+0.0 <=  x123 <= +7.2
+0.0 <=  x124 <= +7.2
+0.0 <=  x125 <= +7.2
+0.0 <=  x126 <= +7.2
+0.0 <=  x127 <= +7.2
+0.0 <=  x128 <= +7.2
+0.0 <=  x129 <= +7.2
+0.0 <=  x130 <= +7.2
+0.0 <=  x131 <= +7.2
+0.0 <=  x132 <= +7.2
+0.0 <=  x133 <= +7.2
+0.0 <=  x134 <= +7.2
+0.0 <=  x135 <= +7.2
+0.0 <=  x136 <= +7.2
+0.0 <=  x137 <= +7.2
+0.0 <=  x138 <= +7.2
+0.0 <=  x139 <= +7.2
+0.0 <=  x140 <= +7.2
+0.0 <=  x141 <= +7.2
+0.0 <=  x142 <= +7.2
+0.0 <=  x143 <= +7.2
+0.0 <=  x144 <= +7.2
+0.0 <=  x145 <= +7.2
+0.0 <=  x146 <= +7.2
+0.0 <=  x147 <= +7.2
+0.0 <=  x148 <= +7.2
+0.0 <=  x149 <= +7.2
+0.0 <=  x150 <= +7.2
+0.0 <=  x151 <= +7.2
+0.0 <=  x152 <= +7.2
+0.0 <=  x153 <= +7.2
+0.0 <=  x154 <= +7.2
+0.0 <=  x155 <= +7.2
+0.0 <=  x156 <= +7.2
+0.0 <=  x157 <= +7.2
+0.0 <=  x158 <= +7.2
-7.2 <=  x159 <= +7.2
-7.2 <=  x160 <= +7.2
-7.2 <=  x161 <= +7.2
-7.2 <=  x162 <= +7.2
-7.2 <=  x163 <= +7.2
-7.2 <=  x164 <= +7.2
-7.2 <=  x165 <= +7.2
-7.2 <=  x166 <= +7.2
-7.2 <=  x167 <= +7.2
-7.2 <=  x168 <= +7.2
-7.2 <=  x169 <= +7.2
-7.2 <=  x170 <= +7.2
-7.2 <=  x171 <= +7.2
-7.2 <=  x172 <= +7.2
-7.2 <=  x173 <= +7.2
-7.2 <=  x174 <= +7.2
-7.2 <=  x175 <= +7.2
-7.2 <=  x176 <= +7.2
-7.2 <=  x177 <= +7.2
-7.2 <=  x178 <= +7.2
-7.2 <=  x179 <= +7.2
-7.2 <=  x180 <= +7.2
-7.2 <=  x181 <= +7.2
-7.2 <=  x182 <= +7.2
-7.2 <=  x183 <= +7.2
-7.2 <=  x184 <= +7.2
-7.2 <=  x185 <= +7.2
-7.2 <=  x186 <= +7.2
-7.2 <=  x187 <= +7.2
-7.2 <=  x188 <= +7.2
-7.2 <=  x189 <= +7.2
-7.2 <=  x190 <= +7.2
-7.2 <=  x191 <= +7.2
-7.2 <=  x192 <= +7.2
-7.2 <=  x193 <= +7.2
-7.2 <=  x194 <= +7.2
-7.2 <=  x195 <= +7.2
-7.2 <=  x196 <= +7.2
-7.2 <=  x197 <= +7.2
-7.2 <=  x198 <= +7.2
-7.2 <=  x199 <= +7.2
-7.2 <=  x200 <= +7.2
-7.2 <=  x201 <= +7.2
-7.2 <=  x202 <= +7.2
-7.2 <=  x203 <= +7.2
-7.2 <=  x204 <= +7.2
-7.2 <=  x205 <= +7.2
-7.2 <=  x206 <= +7.2
-7.2 <=  x207 <= +7.2
-7.2 <=  x208 <= +7.2
-7.2 <=  x209 <= +7.2
-7.2 <=  x210 <= +7.2
-7.2 <=  x211 <= +7.2
-7.2 <=  x212 <= +7.2
-7.2 <=  x213 <= +7.2
-7.2 <=  x214 <= +7.2
-7.2 <=  x215 <= +7.2
-7.2 <=  x216 <= +7.2
-7.2 <=  x217 <= +7.2
-7.2 <=  x218 <= +7.2
-7.2 <=  x219 <= +7.2
-7.2 <=  x220 <= +7.2
-7.2 <=  x221 <= +7.2
-7.2 <=  x222 <= +7.2
-7.2 <=  x223 <= +7.2
-7.2 <=  x224 <= +7.2
-7.2 <=  x225 <= +7.2
-7.2 <=  x226 <= +7.2
-7.2 <=  x227 <= +7.2
-7.2 <=  x228 <= +7.2
-7.2 <=  x229 <= +7.2
-7.2 <=  x230 <= +7.2
-7.2 <=  x231 <= +7.2
-7.2 <=  x232 <= +7.2
-7.2 <=  x233 <= +7.2
-7.2 <=  x234 <= +7.2
-7.2 <=  x235 <= +7.2
-7.2 <=  x236 <= +7.2
-7.2 <=  x237 <= +7.2
-7.2 <=  x238 <= +7.2
-7.2 <=  x239 <= +7.2
-7.2 <=  x240 <= +7.2
-7.2 <=  x241 <= +7.2
-7.2 <=  x242 <= +7.2
-7.2 <=  x243 <= +7.2
-7.2 <=  x244 <= +7.2
-7.2 <=  x245 <= +7.2
-7.2 <=  x246 <= +7.2
-7.2 <=  x247 <= +7.2
-7.2 <=  x248 <= +7.2
-7.2 <=  x249 <= +7.2
-7.2 <=  x250 <= +7.2
-7.2 <=  x251 <= +7.2
-7.2 <=  x252 <= +7.2
-7.2 <=  x253 <= +7.2
-7.2 <=  x254 <= +7.2
-7.2 <=  x255 <= +7.2
-7.2 <=  x256 <= +7.2
-7.2 <=  x257 <= +7.2
-7.2 <=  x258 <= +7.2
-7.2 <=  x259 <= +7.2
-7.2 <=  x260 <= +7.2
-7.2 <=  x261 <= +7.2
-7.2 <=  x262 <= +7.2
-7.2 <=  x263 <= +7.2
-7.2 <=  x264 <= +7.2
-7.2 <=  x265 <= +7.2
-7.2 <=  x266 <= +7.2
-7.2 <=  x267 <= +7.2
-7.2 <=  x268 <= +7.2
-7.2 <=  x269 <= +7.2
-7.2 <=  x270 <= +7.2
-7.2 <=  x271 <= +7.2
-7.2 <=  x272 <= +7.2
-7.2 <=  x273 <= +7.2
-7.2 <=  x274 <= +7.2
-7.2 <=  x275 <= +7.2
-7.2 <=  x276 <= +7.2
-7.2 <=  x277 <= +7.2
-7.2 <=  x278 <= +7.2
-7.2 <=  x279 <= +7.2
-7.2 <=  x280 <= +7.2
-7.2 <=  x281 <= +7.2
-7.2 <=  x282 <= +7.2
-7.2 <=  x283 <= +7.2
-7.2 <=  x284 <= +7.2
-7.2 <=  x285 <= +7.2
-7.2 <=  x286 <= +7.2
-7.2 <=  x287 <= +7.2
-7.2 <=  x288 <= +7.2
-7.2 <=  x289 <= +7.2
-7.2 <=  x290 <= +7.2
-7.2 <=  x291 <= +7.2
-7.2 <=  x292 <= +7.2
-7.2 <=  x293 <= +7.2
-7.2 <=  x294 <= +7.2
-7.2 <=  x295 <= +7.2
-7.2 <=  x296 <= +7.2
-7.2 <=  x297 <= +7.2
-7.2 <=  x298 <= +7.2
-7.2 <=  x299 <= +7.2
-7.2 <=  x300 <= +7.2
-7.2 <=  x301 <= +7.2
-7.2 <=  x302 <= +7.2
-7.2 <=  x303 <= +7.2
-7.2 <=  x304 <= +7.2
-7.2 <=  x305 <= +7.2
-7.2 <=  x306 <= +7.2
-7.2 <=  x307 <= +7.2
-7.2 <=  x308 <= +7.2
-7.2 <=  x309 <= +7.2
-7.2 <=  x310 <= +7.2
-7.2 <=  x311 <= +7.2
-7.2 <=  x312 <= +7.2
-7.2 <=  x313 <= +7.2
-7.2 <=  x314 <= +7.2
-7.2 <=  x315 <= +7.2
-7.2 <=  x316 <= +7.2
-7.2 <=  x317 <= +7.2
-7.2 <=  x318 <= +7.2
end
